<instance format="XCSP3" type="COP">
  <variables>
    <array id="x" size="[50]"> 0 1 </array>
  </variables>
  <constraints>
    <sum>
      <list> x[] </list>
      <coeffs> 35 11 11 32 29 3 50 15 10 12 36 33 28 15 32 7 27 38 37 50 12 43 36 46 29 14 8 10 47 44 39 36 23 19 43 18 12 35 4 38 8 40 33 25 21 43 29 36 25 15 </coeffs>
      <condition> (le,200) </condition>
    </sum>
  </constraints>
  <objectives>
    <maximize type="sum">
      <list> x[] </list>
      <coeffs> 40 22 58 90 30 39 8 47 31 11 27 26 76 87 72 88 96 23 51 10 66 81 47 96 31 27 4 94 21 96 100 84 45 32 27 83 99 91 93 72 81 83 10 57 80 70 15 44 28 45 </coeffs>
    </maximize>
  </objectives>
</instance>
